c "950110.clq"
p edge 202 2976
e 1 17
e 1 18
e 1 19
e 1 21
e 1 26
e 1 28
e 1 33
e 1 34
e 1 39
e 1 47
e 1 56
e 1 64
e 1 67
e 1 78
e 1 83
e 1 85
e 1 89
e 1 99
e 1 125
e 1 139
e 1 141
e 1 147
e 1 158
e 1 191
e 1 194
e 1 196
e 2 17
e 2 18
e 2 20
e 2 21
e 2 22
e 2 23
e 2 24
e 2 25
e 2 27
e 2 29
e 2 32
e 2 34
e 2 36
e 2 39
e 2 40
e 2 44
e 2 45
e 2 46
e 2 47
e 2 51
e 2 53
e 2 54
e 2 58
e 2 63
e 2 67
e 2 68
e 2 82
e 2 89
e 2 93
e 2 99
e 2 105
e 2 108
e 2 117
e 2 119
e 2 122
e 2 128
e 2 137
e 2 149
e 2 162
e 2 167
e 2 170
e 2 185
e 2 193
e 2 201
e 3 17
e 3 18
e 3 19
e 3 20
e 3 21
e 3 22
e 3 23
e 3 26
e 3 27
e 3 28
e 3 29
e 3 31
e 3 35
e 3 41
e 3 42
e 3 43
e 3 45
e 3 46
e 3 47
e 3 48
e 3 51
e 3 52
e 3 57
e 3 60
e 3 61
e 3 66
e 3 69
e 3 74
e 3 81
e 3 82
e 3 90
e 3 91
e 3 97
e 3 101
e 3 102
e 3 111
e 3 112
e 3 113
e 3 117
e 3 118
e 3 121
e 3 131
e 3 137
e 3 141
e 3 156
e 3 159
e 3 161
e 3 163
e 3 166
e 3 169
e 3 171
e 3 174
e 3 176
e 3 181
e 3 187
e 3 189
e 3 196
e 4 17
e 4 18
e 4 19
e 4 20
e 4 23
e 4 32
e 4 48
e 4 57
e 4 61
e 4 81
e 4 189
e 5 17
e 5 18
e 5 19
e 5 20
e 5 21
e 5 22
e 5 24
e 5 25
e 5 26
e 5 27
e 5 29
e 5 32
e 5 34
e 5 36
e 5 41
e 5 43
e 5 44
e 5 46
e 5 48
e 5 49
e 5 60
e 5 65
e 5 70
e 5 71
e 5 72
e 5 73
e 5 74
e 5 80
e 5 83
e 5 86
e 5 87
e 5 98
e 5 102
e 5 116
e 5 135
e 5 149
e 5 154
e 5 159
e 5 171
e 5 177
e 5 179
e 5 181
e 5 184
e 5 190
e 5 194
e 5 196
e 6 17
e 6 19
e 6 20
e 6 21
e 6 22
e 6 23
e 6 24
e 6 25
e 6 26
e 6 27
e 6 29
e 6 32
e 6 33
e 6 34
e 6 37
e 6 38
e 6 39
e 6 40
e 6 41
e 6 44
e 6 46
e 6 53
e 6 59
e 6 62
e 6 65
e 6 66
e 6 71
e 6 72
e 6 73
e 6 76
e 6 78
e 6 80
e 6 82
e 6 86
e 6 92
e 6 93
e 6 98
e 6 103
e 6 104
e 6 107
e 6 115
e 6 117
e 6 122
e 6 123
e 6 125
e 6 126
e 6 128
e 6 133
e 6 152
e 6 153
e 6 156
e 6 167
e 6 169
e 6 170
e 6 172
e 6 180
e 6 185
e 6 190
e 6 193
e 6 198
e 7 17
e 7 18
e 7 19
e 7 20
e 7 22
e 7 23
e 7 24
e 7 26
e 7 30
e 7 31
e 7 32
e 7 39
e 7 44
e 7 48
e 7 53
e 7 54
e 7 55
e 7 59
e 7 60
e 7 62
e 7 71
e 7 92
e 7 94
e 7 99
e 7 109
e 7 113
e 7 118
e 7 125
e 7 136
e 7 169
e 7 175
e 7 187
e 7 196
e 7 200
e 8 17
e 8 18
e 8 19
e 8 20
e 8 21
e 8 24
e 8 25
e 8 26
e 8 28
e 8 30
e 8 31
e 8 32
e 8 40
e 8 42
e 8 44
e 8 50
e 8 54
e 8 55
e 8 58
e 8 62
e 8 64
e 8 69
e 8 70
e 8 78
e 8 84
e 8 96
e 8 102
e 8 109
e 8 110
e 8 116
e 8 129
e 8 134
e 8 143
e 8 146
e 8 149
e 8 162
e 8 165
e 8 187
e 8 191
e 8 202
e 9 17
e 9 18
e 9 19
e 9 20
e 9 21
e 9 23
e 9 25
e 9 27
e 9 28
e 9 29
e 9 33
e 9 35
e 9 37
e 9 39
e 9 41
e 9 42
e 9 44
e 9 51
e 9 56
e 9 57
e 9 58
e 9 59
e 9 60
e 9 62
e 9 64
e 9 72
e 9 74
e 9 75
e 9 81
e 9 82
e 9 83
e 9 86
e 9 88
e 9 98
e 9 104
e 9 105
e 9 121
e 9 123
e 9 128
e 9 131
e 9 132
e 9 136
e 9 141
e 9 145
e 9 157
e 9 160
e 9 163
e 9 168
e 9 172
e 9 178
e 9 186
e 9 187
e 9 193
e 9 197
e 9 202
e 10 17
e 10 18
e 10 19
e 10 21
e 10 22
e 10 26
e 10 27
e 10 28
e 10 30
e 10 32
e 10 35
e 10 36
e 10 43
e 10 45
e 10 65
e 10 69
e 10 71
e 10 86
e 10 89
e 10 90
e 10 92
e 10 115
e 10 117
e 10 121
e 10 124
e 10 125
e 10 129
e 10 134
e 10 142
e 10 143
e 10 146
e 10 154
e 10 160
e 10 164
e 10 167
e 10 172
e 10 175
e 10 180
e 10 183
e 10 195
e 10 198
e 11 17
e 11 18
e 11 19
e 11 20
e 11 22
e 11 23
e 11 24
e 11 25
e 11 26
e 11 30
e 11 32
e 11 34
e 11 37
e 11 41
e 11 42
e 11 45
e 11 49
e 11 56
e 11 63
e 11 77
e 11 86
e 11 98
e 11 107
e 11 111
e 11 114
e 11 121
e 11 127
e 11 130
e 11 141
e 11 142
e 11 151
e 11 153
e 11 172
e 11 175
e 11 180
e 11 191
e 11 202
e 12 17
e 12 18
e 12 19
e 12 21
e 12 22
e 12 24
e 12 25
e 12 31
e 12 36
e 12 38
e 12 40
e 12 45
e 12 49
e 12 59
e 12 62
e 12 64
e 12 87
e 12 88
e 12 100
e 12 102
e 12 118
e 12 122
e 12 143
e 12 156
e 13 17
e 13 18
e 13 20
e 13 22
e 13 23
e 13 24
e 13 26
e 13 27
e 13 29
e 13 31
e 13 33
e 13 37
e 13 39
e 13 42
e 13 45
e 13 48
e 13 49
e 13 51
e 13 55
e 13 59
e 13 65
e 13 66
e 13 68
e 13 78
e 13 79
e 13 83
e 13 88
e 13 89
e 13 91
e 13 97
e 13 111
e 13 139
e 13 153
e 13 159
e 13 163
e 13 166
e 13 169
e 13 179
e 13 187
e 13 192
e 13 199
e 13 200
e 14 17
e 14 18
e 14 19
e 14 20
e 14 21
e 14 23
e 14 27
e 14 28
e 14 30
e 14 31
e 14 36
e 14 42
e 14 50
e 14 52
e 14 53
e 14 54
e 14 61
e 14 68
e 14 70
e 14 89
e 14 90
e 14 97
e 14 99
e 14 104
e 14 111
e 14 114
e 14 128
e 14 153
e 14 157
e 14 188
e 14 197
e 15 17
e 15 18
e 15 19
e 15 20
e 15 21
e 15 22
e 15 23
e 15 24
e 15 26
e 15 28
e 15 36
e 15 39
e 15 43
e 15 46
e 15 48
e 15 52
e 15 53
e 15 56
e 15 67
e 15 71
e 15 86
e 15 92
e 15 105
e 15 111
e 15 115
e 15 119
e 15 122
e 15 138
e 15 169
e 15 174
e 15 175
e 15 178
e 15 181
e 15 194
e 16 17
e 16 18
e 16 19
e 16 20
e 16 21
e 16 22
e 16 25
e 16 26
e 16 28
e 16 35
e 16 37
e 16 41
e 16 42
e 16 46
e 16 50
e 16 53
e 16 64
e 16 67
e 16 68
e 16 76
e 16 85
e 16 92
e 16 97
e 16 98
e 16 109
e 16 120
e 16 122
e 16 129
e 16 154
e 16 155
e 16 157
e 16 159
e 16 162
e 16 186
e 16 197
e 17 18
e 17 19
e 17 20
e 17 21
e 17 22
e 17 23
e 17 24
e 17 25
e 17 27
e 17 28
e 17 29
e 17 30
e 17 32
e 17 33
e 17 34
e 17 35
e 17 36
e 17 38
e 17 39
e 17 40
e 17 41
e 17 42
e 17 43
e 17 46
e 17 48
e 17 51
e 17 56
e 17 57
e 17 58
e 17 60
e 17 61
e 17 63
e 17 66
e 17 67
e 17 70
e 17 71
e 17 72
e 17 77
e 17 78
e 17 79
e 17 80
e 17 81
e 17 91
e 17 93
e 17 96
e 17 97
e 17 107
e 17 108
e 17 109
e 17 115
e 17 117
e 17 118
e 17 120
e 17 122
e 17 125
e 17 131
e 17 137
e 17 143
e 17 162
e 17 164
e 17 166
e 17 170
e 17 173
e 17 181
e 17 184
e 17 185
e 17 187
e 18 19
e 18 20
e 18 21
e 18 22
e 18 23
e 18 24
e 18 25
e 18 27
e 18 28
e 18 29
e 18 31
e 18 32
e 18 36
e 18 37
e 18 41
e 18 43
e 18 44
e 18 45
e 18 49
e 18 52
e 18 53
e 18 54
e 18 56
e 18 57
e 18 59
e 18 60
e 18 61
e 18 62
e 18 65
e 18 67
e 18 69
e 18 70
e 18 75
e 18 77
e 18 78
e 18 79
e 18 81
e 18 83
e 18 92
e 18 93
e 18 97
e 18 100
e 18 103
e 18 110
e 18 114
e 18 117
e 18 120
e 18 123
e 18 126
e 18 127
e 18 129
e 18 135
e 18 148
e 18 150
e 18 153
e 18 155
e 18 165
e 18 176
e 18 186
e 18 188
e 18 192
e 18 194
e 19 20
e 19 21
e 19 22
e 19 23
e 19 24
e 19 25
e 19 26
e 19 27
e 19 28
e 19 29
e 19 30
e 19 32
e 19 33
e 19 34
e 19 35
e 19 36
e 19 37
e 19 38
e 19 39
e 19 40
e 19 47
e 19 49
e 19 50
e 19 51
e 19 52
e 19 54
e 19 56
e 19 62
e 19 64
e 19 67
e 19 68
e 19 69
e 19 73
e 19 74
e 19 76
e 19 77
e 19 79
e 19 80
e 19 83
e 19 87
e 19 94
e 19 95
e 19 96
e 19 99
e 19 101
e 19 109
e 19 110
e 19 118
e 19 119
e 19 123
e 19 128
e 19 129
e 19 130
e 19 135
e 19 139
e 19 140
e 19 143
e 19 145
e 19 151
e 19 156
e 19 160
e 19 163
e 19 165
e 19 168
e 19 169
e 19 172
e 19 177
e 19 179
e 19 182
e 19 185
e 19 189
e 19 191
e 19 197
e 19 198
e 20 21
e 20 22
e 20 23
e 20 24
e 20 25
e 20 27
e 20 28
e 20 29
e 20 30
e 20 31
e 20 32
e 20 33
e 20 34
e 20 35
e 20 36
e 20 38
e 20 39
e 20 40
e 20 41
e 20 43
e 20 46
e 20 47
e 20 50
e 20 55
e 20 56
e 20 58
e 20 59
e 20 63
e 20 64
e 20 66
e 20 76
e 20 79
e 20 80
e 20 84
e 20 86
e 20 87
e 20 90
e 20 91
e 20 92
e 20 94
e 20 95
e 20 97
e 20 98
e 20 99
e 20 100
e 20 107
e 20 108
e 20 110
e 20 115
e 20 120
e 20 124
e 20 126
e 20 132
e 20 134
e 20 138
e 20 143
e 20 144
e 20 145
e 20 148
e 20 157
e 20 165
e 20 169
e 20 171
e 20 180
e 20 181
e 20 182
e 20 187
e 20 188
e 20 195
e 20 196
e 21 22
e 21 23
e 21 24
e 21 25
e 21 26
e 21 27
e 21 30
e 21 33
e 21 34
e 21 35
e 21 37
e 21 41
e 21 42
e 21 44
e 21 46
e 21 47
e 21 49
e 21 52
e 21 55
e 21 56
e 21 58
e 21 59
e 21 62
e 21 63
e 21 65
e 21 66
e 21 71
e 21 72
e 21 73
e 21 81
e 21 84
e 21 86
e 21 87
e 21 90
e 21 93
e 21 99
e 21 100
e 21 103
e 21 104
e 21 105
e 21 106
e 21 112
e 21 115
e 21 120
e 21 126
e 21 135
e 21 152
e 21 166
e 21 167
e 21 172
e 21 187
e 22 23
e 22 24
e 22 25
e 22 26
e 22 28
e 22 29
e 22 30
e 22 31
e 22 32
e 22 33
e 22 34
e 22 35
e 22 37
e 22 38
e 22 40
e 22 41
e 22 43
e 22 44
e 22 45
e 22 46
e 22 51
e 22 52
e 22 53
e 22 55
e 22 57
e 22 58
e 22 60
e 22 64
e 22 76
e 22 77
e 22 78
e 22 84
e 22 90
e 22 96
e 22 98
e 22 104
e 22 110
e 22 112
e 22 115
e 22 116
e 22 117
e 22 120
e 22 122
e 22 125
e 22 135
e 22 137
e 22 143
e 22 144
e 22 149
e 22 150
e 22 154
e 22 156
e 22 162
e 22 164
e 22 165
e 22 169
e 22 170
e 22 175
e 22 176
e 22 181
e 22 184
e 22 187
e 22 189
e 22 190
e 22 191
e 22 194
e 22 199
e 22 201
e 22 202
e 23 24
e 23 25
e 23 26
e 23 27
e 23 29
e 23 30
e 23 32
e 23 34
e 23 36
e 23 37
e 23 40
e 23 41
e 23 46
e 23 47
e 23 48
e 23 49
e 23 50
e 23 54
e 23 55
e 23 57
e 23 58
e 23 60
e 23 62
e 23 64
e 23 65
e 23 69
e 23 70
e 23 73
e 23 74
e 23 75
e 23 81
e 23 83
e 23 88
e 23 93
e 23 94
e 23 96
e 23 99
e 23 101
e 23 102
e 23 105
e 23 108
e 23 113
e 23 119
e 23 122
e 23 128
e 23 129
e 23 131
e 23 135
e 23 136
e 23 137
e 23 140
e 23 141
e 23 142
e 23 143
e 23 144
e 23 151
e 23 152
e 23 157
e 23 163
e 23 164
e 23 165
e 23 183
e 23 185
e 23 186
e 23 188
e 23 190
e 24 25
e 24 27
e 24 28
e 24 29
e 24 30
e 24 31
e 24 32
e 24 33
e 24 34
e 24 35
e 24 36
e 24 37
e 24 38
e 24 39
e 24 40
e 24 41
e 24 46
e 24 55
e 24 58
e 24 65
e 24 68
e 24 69
e 24 70
e 24 73
e 24 74
e 24 75
e 24 76
e 24 78
e 24 91
e 24 93
e 24 95
e 24 98
e 24 102
e 24 103
e 24 105
e 24 108
e 24 109
e 24 127
e 24 135
e 24 146
e 24 148
e 24 150
e 24 155
e 24 158
e 24 163
e 24 173
e 24 177
e 24 197
e 25 26
e 25 28
e 25 31
e 25 33
e 25 35
e 25 37
e 25 38
e 25 39
e 25 44
e 25 45
e 25 46
e 25 50
e 25 53
e 25 54
e 25 55
e 25 60
e 25 61
e 25 71
e 25 72
e 25 73
e 25 74
e 25 82
e 25 84
e 25 85
e 25 89
e 25 96
e 25 100
e 25 101
e 25 102
e 25 104
e 25 105
e 25 111
e 25 113
e 25 126
e 25 141
e 25 144
e 25 147
e 25 153
e 25 158
e 25 159
e 25 168
e 25 170
e 25 183
e 25 196
e 25 197
e 25 199
e 25 201
e 25 202
e 26 27
e 26 28
e 26 29
e 26 30
e 26 31
e 26 33
e 26 37
e 26 38
e 26 42
e 26 47
e 26 50
e 26 54
e 26 56
e 26 57
e 26 58
e 26 59
e 26 63
e 26 68
e 26 74
e 26 75
e 26 81
e 26 84
e 26 89
e 26 91
e 26 94
e 26 111
e 26 124
e 26 130
e 26 131
e 26 147
e 26 150
e 26 155
e 26 160
e 26 170
e 26 178
e 26 183
e 26 185
e 26 188
e 26 194
e 26 202
e 27 29
e 27 30
e 27 31
e 27 33
e 27 43
e 27 44
e 27 49
e 27 50
e 27 52
e 27 55
e 27 56
e 27 63
e 27 64
e 27 65
e 27 67
e 27 69
e 27 72
e 27 75
e 27 78
e 27 82
e 27 84
e 27 85
e 27 97
e 27 107
e 27 108
e 27 113
e 27 119
e 27 120
e 27 121
e 27 145
e 27 146
e 27 153
e 27 154
e 27 155
e 27 157
e 27 159
e 27 161
e 27 165
e 27 166
e 27 171
e 27 175
e 27 176
e 27 185
e 27 190
e 27 193
e 27 194
e 28 29
e 28 30
e 28 31
e 28 32
e 28 33
e 28 34
e 28 36
e 28 38
e 28 39
e 28 43
e 28 44
e 28 48
e 28 49
e 28 50
e 28 51
e 28 53
e 28 55
e 28 57
e 28 61
e 28 64
e 28 67
e 28 69
e 28 70
e 28 73
e 28 75
e 28 76
e 28 77
e 28 78
e 28 79
e 28 82
e 28 83
e 28 96
e 28 98
e 28 100
e 28 101
e 28 105
e 28 107
e 28 108
e 28 112
e 28 113
e 28 117
e 28 119
e 28 123
e 28 130
e 28 144
e 28 147
e 28 149
e 28 150
e 28 152
e 28 158
e 28 161
e 28 181
e 28 184
e 28 190
e 28 191
e 28 198
e 28 199
e 28 200
e 28 201
e 29 30
e 29 31
e 29 34
e 29 37
e 29 39
e 29 40
e 29 43
e 29 45
e 29 47
e 29 51
e 29 52
e 29 53
e 29 58
e 29 61
e 29 63
e 29 64
e 29 67
e 29 71
e 29 72
e 29 73
e 29 74
e 29 76
e 29 77
e 29 81
e 29 82
e 29 86
e 29 90
e 29 92
e 29 94
e 29 101
e 29 106
e 29 112
e 29 115
e 29 121
e 29 126
e 29 127
e 29 131
e 29 132
e 29 133
e 29 135
e 29 136
e 29 137
e 29 139
e 29 147
e 29 148
e 29 149
e 29 152
e 29 157
e 29 158
e 29 165
e 29 171
e 29 174
e 29 175
e 29 178
e 29 183
e 29 190
e 29 192
e 29 199
e 30 31
e 30 33
e 30 34
e 30 35
e 30 37
e 30 41
e 30 45
e 30 50
e 30 51
e 30 52
e 30 54
e 30 58
e 30 63
e 30 65
e 30 66
e 30 70
e 30 71
e 30 77
e 30 79
e 30 81
e 30 85
e 30 106
e 30 107
e 30 120
e 30 122
e 30 123
e 30 129
e 30 141
e 30 144
e 30 151
e 30 154
e 30 155
e 30 164
e 30 167
e 30 172
e 30 177
e 30 179
e 30 182
e 30 186
e 30 189
e 30 195
e 30 197
e 31 33
e 31 34
e 31 35
e 31 36
e 31 38
e 31 49
e 31 51
e 31 61
e 31 70
e 31 79
e 31 80
e 31 91
e 31 93
e 31 98
e 31 101
e 31 103
e 31 105
e 31 106
e 31 110
e 31 112
e 31 116
e 31 132
e 31 138
e 31 140
e 31 145
e 31 148
e 31 163
e 31 173
e 31 178
e 31 201
e 32 35
e 32 38
e 32 40
e 32 41
e 32 42
e 32 43
e 32 47
e 32 49
e 32 52
e 32 61
e 32 62
e 32 63
e 32 66
e 32 69
e 32 70
e 32 71
e 32 80
e 32 92
e 32 93
e 32 101
e 32 105
e 32 111
e 32 114
e 32 125
e 32 129
e 32 131
e 32 141
e 32 145
e 32 151
e 32 153
e 32 157
e 32 160
e 32 162
e 32 165
e 32 167
e 32 169
e 32 176
e 32 177
e 32 186
e 32 188
e 32 200
e 32 201
e 33 35
e 33 36
e 33 38
e 33 40
e 33 42
e 33 45
e 33 47
e 33 49
e 33 54
e 33 55
e 33 57
e 33 59
e 33 60
e 33 61
e 33 64
e 33 65
e 33 70
e 33 73
e 33 74
e 33 75
e 33 76
e 33 89
e 33 90
e 33 95
e 33 98
e 33 99
e 33 101
e 33 114
e 33 118
e 33 122
e 33 124
e 33 133
e 33 140
e 33 142
e 33 143
e 33 154
e 33 156
e 33 193
e 33 195
e 33 198
e 34 35
e 34 36
e 34 38
e 34 39
e 34 42
e 34 43
e 34 45
e 34 49
e 34 52
e 34 55
e 34 57
e 34 60
e 34 66
e 34 78
e 34 86
e 34 88
e 34 89
e 34 100
e 34 119
e 34 121
e 34 124
e 34 127
e 34 130
e 34 144
e 34 148
e 34 159
e 34 165
e 34 173
e 34 182
e 34 185
e 34 187
e 34 196
e 35 37
e 35 42
e 35 43
e 35 44
e 35 50
e 35 53
e 35 58
e 35 59
e 35 62
e 35 65
e 35 66
e 35 68
e 35 88
e 35 96
e 35 107
e 35 117
e 35 118
e 35 120
e 35 139
e 35 145
e 35 147
e 35 153
e 35 178
e 35 187
e 35 195
e 36 38
e 36 39
e 36 40
e 36 42
e 36 43
e 36 46
e 36 48
e 36 49
e 36 51
e 36 52
e 36 54
e 36 56
e 36 58
e 36 60
e 36 61
e 36 63
e 36 68
e 36 80
e 36 82
e 36 83
e 36 87
e 36 95
e 36 96
e 36 98
e 36 109
e 36 118
e 36 120
e 36 130
e 36 132
e 36 137
e 36 143
e 36 146
e 36 155
e 36 158
e 36 173
e 36 179
e 36 194
e 37 38
e 37 40
e 37 44
e 37 45
e 37 46
e 37 47
e 37 50
e 37 51
e 37 53
e 37 66
e 37 67
e 37 68
e 37 75
e 37 85
e 37 86
e 37 87
e 37 95
e 37 96
e 37 98
e 37 101
e 37 104
e 37 105
e 37 108
e 37 117
e 37 119
e 37 122
e 37 126
e 37 133
e 37 140
e 37 141
e 37 142
e 37 155
e 37 160
e 37 164
e 37 167
e 37 168
e 37 170
e 37 182
e 37 185
e 37 197
e 38 50
e 38 54
e 38 59
e 38 63
e 38 64
e 38 67
e 38 70
e 38 78
e 38 84
e 38 89
e 38 90
e 38 92
e 38 94
e 38 95
e 38 110
e 38 113
e 38 116
e 38 117
e 38 127
e 38 128
e 38 135
e 38 137
e 38 139
e 38 145
e 38 150
e 38 161
e 38 166
e 38 167
e 38 178
e 39 40
e 39 47
e 39 48
e 39 55
e 39 69
e 39 79
e 39 85
e 39 97
e 39 128
e 39 133
e 39 134
e 39 147
e 39 148
e 39 153
e 39 165
e 39 171
e 39 173
e 39 191
e 39 192
e 39 197
e 39 201
e 40 41
e 40 44
e 40 47
e 40 48
e 40 50
e 40 51
e 40 61
e 40 66
e 40 81
e 40 85
e 40 88
e 40 106
e 40 112
e 40 115
e 40 116
e 40 119
e 40 127
e 40 144
e 40 156
e 40 161
e 40 182
e 41 42
e 41 44
e 41 47
e 41 48
e 41 50
e 41 52
e 41 60
e 41 62
e 41 68
e 41 71
e 41 79
e 41 82
e 41 84
e 41 85
e 41 100
e 41 102
e 41 111
e 41 116
e 41 119
e 41 124
e 41 126
e 41 127
e 41 130
e 41 134
e 41 136
e 41 138
e 41 139
e 41 143
e 41 145
e 41 146
e 41 154
e 41 158
e 42 43
e 42 48
e 42 51
e 42 53
e 42 56
e 42 60
e 42 63
e 42 65
e 42 69
e 42 72
e 42 76
e 42 77
e 42 85
e 42 96
e 42 106
e 42 110
e 42 113
e 42 116
e 42 123
e 42 129
e 42 130
e 42 149
e 42 154
e 42 155
e 42 170
e 42 171
e 42 174
e 42 193
e 42 196
e 43 45
e 43 46
e 43 48
e 43 54
e 43 56
e 43 72
e 43 73
e 43 74
e 43 75
e 43 76
e 43 91
e 43 95
e 43 97
e 43 100
e 43 103
e 43 104
e 43 113
e 43 124
e 43 134
e 43 138
e 43 147
e 43 151
e 43 155
e 43 158
e 43 160
e 43 174
e 43 181
e 43 184
e 44 45
e 44 51
e 44 55
e 44 56
e 44 63
e 44 72
e 44 79
e 44 89
e 44 93
e 44 95
e 44 99
e 44 102
e 44 120
e 44 135
e 44 136
e 44 139
e 44 143
e 44 148
e 44 160
e 44 175
e 44 177
e 44 178
e 44 182
e 44 191
e 45 47
e 45 48
e 45 56
e 45 57
e 45 63
e 45 68
e 45 71
e 45 72
e 45 75
e 45 80
e 45 82
e 45 83
e 45 86
e 45 87
e 45 95
e 45 103
e 45 106
e 45 107
e 45 111
e 45 112
e 45 116
e 45 121
e 45 129
e 45 135
e 45 153
e 45 157
e 45 159
e 45 160
e 45 170
e 45 172
e 45 174
e 45 175
e 45 177
e 45 193
e 45 197
e 46 54
e 46 55
e 46 57
e 46 59
e 46 65
e 46 73
e 46 75
e 46 76
e 46 87
e 46 98
e 46 120
e 46 132
e 46 137
e 46 145
e 46 157
e 46 163
e 46 185
e 46 195
e 46 197
e 47 49
e 47 52
e 47 53
e 47 54
e 47 57
e 47 84
e 47 86
e 47 94
e 47 97
e 47 109
e 47 114
e 47 131
e 47 146
e 47 149
e 47 153
e 47 167
e 47 168
e 47 178
e 47 198
e 48 53
e 48 57
e 48 59
e 48 67
e 48 72
e 48 73
e 48 80
e 48 83
e 48 92
e 48 93
e 48 112
e 48 115
e 48 122
e 48 127
e 48 134
e 48 138
e 48 140
e 48 150
e 48 161
e 48 162
e 48 166
e 48 168
e 48 176
e 48 186
e 48 188
e 48 191
e 48 194
e 48 201
e 49 59
e 49 61
e 49 72
e 49 77
e 49 79
e 49 109
e 49 113
e 49 115
e 49 135
e 49 136
e 49 156
e 49 165
e 49 171
e 49 176
e 49 179
e 49 196
e 50 58
e 50 62
e 50 64
e 50 68
e 50 69
e 50 78
e 50 80
e 50 82
e 50 89
e 50 93
e 50 94
e 50 102
e 50 105
e 50 118
e 50 119
e 50 126
e 50 139
e 50 149
e 50 150
e 50 157
e 50 160
e 50 163
e 50 166
e 50 172
e 50 191
e 50 196
e 51 52
e 51 61
e 51 78
e 51 92
e 51 126
e 51 142
e 51 155
e 51 159
e 51 192
e 51 202
e 52 59
e 52 60
e 52 62
e 52 66
e 52 67
e 52 72
e 52 82
e 52 89
e 52 90
e 52 96
e 52 99
e 52 100
e 52 109
e 52 114
e 52 115
e 52 116
e 52 117
e 52 118
e 52 121
e 52 124
e 52 127
e 52 131
e 52 132
e 52 141
e 52 147
e 52 175
e 52 186
e 52 187
e 52 188
e 52 189
e 52 199
e 53 57
e 53 62
e 53 66
e 53 90
e 53 91
e 53 93
e 53 103
e 53 105
e 53 110
e 53 112
e 53 136
e 53 138
e 53 144
e 53 156
e 53 158
e 53 163
e 53 164
e 53 174
e 53 176
e 54 65
e 54 71
e 54 75
e 54 79
e 54 80
e 54 81
e 54 84
e 54 88
e 54 94
e 54 103
e 54 107
e 54 122
e 54 133
e 54 136
e 54 139
e 54 145
e 54 158
e 54 159
e 54 163
e 54 182
e 54 190
e 54 191
e 54 193
e 54 199
e 54 201
e 55 73
e 55 81
e 55 88
e 55 91
e 55 95
e 55 97
e 55 100
e 55 101
e 55 103
e 55 115
e 55 118
e 55 125
e 55 132
e 55 137
e 55 140
e 55 145
e 55 150
e 55 151
e 55 158
e 55 175
e 55 180
e 55 183
e 55 189
e 55 199
e 56 66
e 56 78
e 56 83
e 56 87
e 56 88
e 56 107
e 56 120
e 56 124
e 56 129
e 56 135
e 56 136
e 56 138
e 56 158
e 56 166
e 56 184
e 56 188
e 57 58
e 57 60
e 57 74
e 57 75
e 57 77
e 57 85
e 57 86
e 57 92
e 57 96
e 57 97
e 57 110
e 57 115
e 57 118
e 57 127
e 57 131
e 57 133
e 57 148
e 57 153
e 57 162
e 57 182
e 57 194
e 57 198
e 57 200
e 58 61
e 58 62
e 58 67
e 58 68
e 58 74
e 58 76
e 58 92
e 58 99
e 58 107
e 58 128
e 58 130
e 58 136
e 58 137
e 58 161
e 58 166
e 58 178
e 58 182
e 58 186
e 59 65
e 59 70
e 59 73
e 59 74
e 59 80
e 59 87
e 59 99
e 59 100
e 59 106
e 59 136
e 59 138
e 59 140
e 59 145
e 59 151
e 59 159
e 59 166
e 59 198
e 60 66
e 60 69
e 60 128
e 60 129
e 60 137
e 60 162
e 60 179
e 60 189
e 60 193
e 61 63
e 61 67
e 61 73
e 61 114
e 61 128
e 61 162
e 61 170
e 61 173
e 61 179
e 61 191
e 62 64
e 62 68
e 62 77
e 62 79
e 62 90
e 62 94
e 62 96
e 62 104
e 62 112
e 62 117
e 62 133
e 62 135
e 62 143
e 62 161
e 62 162
e 62 171
e 62 184
e 62 186
e 62 196
e 62 200
e 62 201
e 63 69
e 63 70
e 63 77
e 63 81
e 63 85
e 63 94
e 63 113
e 63 130
e 63 136
e 63 157
e 63 164
e 63 190
e 63 192
e 64 69
e 64 87
e 64 106
e 64 121
e 64 152
e 64 191
e 65 68
e 65 77
e 65 80
e 65 117
e 65 134
e 65 148
e 65 161
e 65 164
e 65 179
e 65 183
e 66 76
e 66 83
e 66 93
e 66 95
e 66 99
e 66 103
e 66 104
e 66 116
e 66 118
e 66 125
e 66 128
e 66 132
e 66 147
e 66 172
e 66 189
e 67 101
e 67 116
e 67 117
e 67 130
e 67 140
e 67 156
e 67 170
e 67 171
e 67 176
e 67 181
e 67 202
e 68 70
e 68 71
e 68 72
e 68 79
e 68 81
e 68 83
e 68 84
e 68 95
e 68 105
e 68 125
e 68 131
e 68 149
e 68 166
e 68 169
e 68 176
e 69 76
e 69 78
e 69 87
e 69 88
e 69 94
e 69 97
e 69 104
e 69 106
e 69 123
e 69 152
e 69 176
e 69 181
e 69 188
e 70 71
e 70 74
e 70 76
e 70 77
e 70 85
e 70 86
e 70 89
e 70 91
e 70 101
e 70 108
e 70 110
e 70 119
e 70 123
e 70 142
e 70 144
e 70 175
e 70 177
e 70 181
e 70 185
e 71 74
e 71 75
e 71 84
e 71 95
e 71 101
e 71 102
e 71 104
e 71 123
e 71 131
e 71 132
e 71 133
e 71 141
e 71 146
e 71 152
e 71 158
e 71 160
e 71 164
e 71 170
e 71 180
e 71 195
e 71 199
e 72 82
e 72 84
e 72 87
e 72 88
e 72 102
e 72 111
e 72 113
e 72 140
e 72 161
e 72 177
e 72 180
e 72 183
e 73 75
e 73 79
e 73 89
e 73 90
e 73 109
e 73 125
e 73 133
e 73 152
e 73 153
e 73 154
e 73 167
e 73 171
e 73 174
e 73 180
e 73 183
e 73 195
e 74 84
e 74 88
e 74 91
e 74 102
e 74 104
e 74 105
e 74 108
e 74 114
e 74 132
e 74 150
e 74 155
e 74 161
e 74 174
e 75 77
e 75 80
e 75 82
e 75 90
e 75 100
e 75 103
e 75 114
e 75 126
e 75 129
e 75 132
e 75 161
e 75 162
e 75 173
e 75 175
e 75 184
e 76 85
e 76 88
e 76 92
e 76 94
e 76 100
e 76 108
e 76 110
e 76 121
e 76 126
e 76 127
e 76 128
e 76 148
e 76 172
e 76 180
e 76 185
e 76 189
e 77 80
e 77 85
e 77 94
e 77 97
e 77 101
e 77 104
e 77 108
e 77 112
e 77 113
e 77 115
e 77 138
e 77 142
e 77 143
e 77 150
e 77 161
e 77 168
e 77 176
e 77 181
e 77 192
e 77 200
e 78 98
e 78 108
e 78 132
e 78 133
e 78 134
e 78 144
e 78 184
e 78 190
e 79 81
e 79 82
e 79 83
e 79 86
e 79 93
e 79 96
e 79 98
e 79 100
e 79 101
e 79 103
e 79 109
e 79 130
e 79 137
e 79 138
e 79 141
e 79 145
e 79 167
e 79 171
e 79 186
e 79 195
e 80 83
e 80 87
e 80 88
e 80 91
e 80 99
e 80 102
e 80 106
e 80 108
e 80 120
e 80 124
e 80 126
e 80 133
e 80 142
e 80 154
e 80 160
e 80 163
e 80 177
e 80 192
e 80 193
e 81 84
e 81 87
e 81 88
e 81 95
e 81 103
e 81 104
e 81 137
e 81 171
e 81 175
e 81 193
e 81 195
e 81 197
e 82 91
e 82 123
e 82 126
e 82 136
e 82 144
e 82 145
e 82 156
e 82 178
e 82 182
e 83 85
e 83 95
e 83 123
e 83 124
e 83 125
e 83 147
e 83 168
e 83 199
e 83 200
e 84 90
e 84 92
e 84 112
e 84 114
e 84 116
e 84 142
e 84 154
e 84 174
e 84 190
e 85 93
e 85 109
e 85 113
e 85 140
e 85 152
e 85 186
e 85 190
e 85 200
e 86 89
e 86 96
e 86 133
e 86 134
e 86 142
e 86 152
e 86 168
e 86 172
e 86 184
e 87 106
e 87 107
e 87 123
e 87 136
e 87 148
e 88 90
e 88 108
e 88 112
e 88 130
e 88 133
e 88 144
e 88 150
e 88 151
e 89 91
e 89 94
e 89 105
e 89 110
e 89 112
e 89 121
e 89 122
e 89 157
e 89 164
e 89 177
e 89 200
e 89 201
e 90 91
e 90 106
e 90 118
e 90 132
e 90 136
e 90 138
e 91 109
e 91 111
e 91 113
e 91 123
e 91 133
e 91 134
e 91 138
e 91 151
e 91 153
e 91 172
e 91 179
e 91 182
e 91 198
e 92 102
e 92 109
e 92 112
e 92 118
e 92 137
e 92 144
e 92 148
e 92 153
e 92 165
e 92 172
e 92 175
e 92 187
e 92 189
e 93 97
e 93 100
e 93 119
e 93 124
e 93 126
e 93 139
e 93 149
e 93 154
e 93 192
e 94 103
e 94 121
e 94 131
e 94 147
e 94 150
e 94 181
e 95 106
e 95 110
e 95 111
e 95 114
e 95 139
e 95 142
e 95 143
e 95 147
e 95 155
e 95 164
e 95 177
e 95 181
e 95 183
e 96 102
e 96 107
e 96 121
e 96 129
e 96 192
e 96 199
e 97 99
e 97 106
e 97 117
e 97 119
e 97 125
e 97 142
e 97 154
e 97 160
e 97 180
e 97 201
e 98 107
e 98 111
e 98 130
e 98 140
e 98 146
e 98 148
e 98 150
e 98 162
e 98 164
e 98 171
e 98 183
e 98 186
e 98 194
e 99 110
e 99 113
e 99 114
e 99 123
e 99 135
e 99 156
e 99 169
e 99 192
e 100 108
e 100 114
e 100 124
e 100 141
e 100 146
e 100 157
e 100 166
e 100 174
e 100 187
e 101 103
e 101 109
e 101 119
e 101 121
e 101 131
e 101 173
e 101 191
e 102 111
e 102 122
e 102 127
e 102 128
e 102 134
e 102 139
e 102 150
e 102 163
e 102 166
e 102 178
e 102 188
e 103 104
e 103 107
e 103 110
e 103 137
e 103 147
e 103 173
e 103 189
e 103 190
e 103 198
e 104 106
e 104 145
e 104 151
e 105 116
e 105 126
e 105 147
e 105 156
e 105 177
e 105 178
e 105 180
e 105 182
e 105 196
e 105 197
e 106 119
e 106 122
e 106 148
e 106 176
e 106 200
e 107 114
e 107 124
e 107 157
e 108 116
e 108 125
e 108 128
e 108 134
e 108 150
e 108 152
e 108 171
e 108 199
e 109 124
e 109 132
e 109 134
e 109 164
e 109 192
e 110 111
e 110 124
e 110 130
e 110 183
e 110 197
e 111 116
e 111 120
e 111 163
e 111 170
e 111 181
e 112 114
e 112 168
e 112 197
e 112 200
e 113 115
e 113 127
e 113 140
e 113 154
e 113 165
e 113 195
e 114 202
e 115 130
e 115 133
e 115 138
e 115 149
e 116 118
e 116 120
e 116 132
e 116 141
e 116 144
e 116 147
e 116 148
e 116 149
e 116 156
e 116 163
e 116 166
e 116 182
e 116 192
e 116 197
e 116 201
e 117 121
e 117 151
e 117 152
e 117 158
e 117 159
e 117 160
e 117 162
e 117 177
e 117 179
e 117 195
e 118 128
e 118 139
e 118 141
e 118 154
e 118 161
e 118 180
e 118 183
e 119 123
e 119 125
e 119 127
e 119 131
e 119 134
e 119 151
e 119 162
e 119 168
e 119 174
e 119 195
e 120 131
e 120 152
e 120 170
e 120 174
e 120 177
e 120 178
e 120 179
e 120 192
e 121 189
e 121 190
e 122 127
e 122 129
e 122 146
e 122 170
e 123 125
e 123 135
e 123 139
e 123 159
e 123 169
e 123 187
e 123 192
e 123 198
e 124 129
e 124 161
e 124 188
e 125 138
e 125 149
e 125 151
e 125 155
e 125 193
e 126 140
e 126 141
e 126 160
e 126 193
e 126 199
e 127 134
e 127 140
e 127 158
e 127 168
e 127 184
e 127 202
e 128 140
e 128 144
e 128 167
e 128 171
e 128 173
e 128 180
e 128 194
e 128 196
e 129 146
e 129 157
e 129 174
e 129 184
e 129 185
e 130 178
e 131 190
e 132 139
e 132 174
e 132 180
e 132 200
e 132 202
e 133 149
e 133 151
e 133 168
e 133 177
e 133 178
e 133 186
e 133 189
e 133 193
e 133 195
e 133 201
e 135 138
e 135 146
e 135 152
e 135 155
e 135 159
e 135 161
e 135 195
e 136 142
e 136 146
e 136 151
e 136 167
e 136 176
e 136 184
e 137 155
e 137 169
e 137 180
e 137 186
e 137 198
e 137 200
e 138 142
e 138 172
e 139 164
e 139 169
e 139 174
e 139 176
e 139 195
e 139 200
e 140 142
e 140 167
e 140 181
e 140 188
e 141 164
e 141 188
e 141 191
e 142 143
e 142 146
e 142 159
e 143 156
e 143 165
e 143 173
e 143 190
e 144 146
e 144 149
e 144 182
e 144 196
e 144 202
e 145 184
e 145 185
e 145 188
e 145 198
e 146 166
e 146 176
e 147 156
e 147 165
e 148 201
e 149 152
e 149 159
e 149 183
e 149 199
e 150 167
e 150 168
e 150 169
e 150 192
e 150 194
e 151 163
e 151 185
e 151 198
e 153 158
e 153 191
e 154 173
e 154 186
e 154 193
e 155 160
e 155 168
e 157 162
e 157 168
e 158 184
e 160 187
e 161 173
e 161 180
e 162 173
e 162 175
e 162 179
e 164 189
e 165 194
e 166 167
e 166 189
e 166 201
e 167 172
e 167 173
e 167 183
e 167 196
e 168 169
e 168 179
e 168 183
e 169 170
e 169 179
e 169 188
e 170 182
e 172 196
e 172 202
e 174 193
e 175 200
e 176 185
e 176 202
e 177 179
e 180 202
e 182 184
e 182 198
e 184 198
e 185 194
e 188 194
e 192 199
e 193 199
e 193 202
